/*********************************************
    * Lab01 - simple
    * Author: Coso
    * Creation Date: Mar, 2019
    *********************************************/
instance_name = "small_instance_07_simple";

d = 2;
r = 3;

SCj = [90 66];
Dk = [11 89 42];

Cjk = [[51 42 30]
 [58 44 89]];
